(set-logic QF_NRA)
(set-info :source |Benchmarks generated from hycomp (https://es-static.fbk.eu/tools/hycomp/). BMC instances of non-linear hybrid automata taken from: Alessandro Cimatti, Sergio Mover, Stefano Tonetta, A quantifier-free SMT encoding of non-linear hybrid automata, FMCAD 2012 and Alessandro Cimatti, Sergio Mover, Stefano Tonetta, Quantier-free encoding of invariants for Hybrid Systems, Formal Methods in System Design. This instance solves a BMC problem of depth 2 and uses the quantifier free encoding with lemmas encoding. Contacts: Sergio Mover (mover@fbk.eu), Stefano Tonetta (tonettas@fbk.eu), Alessandro Cimatti (cimatti@fbk.eu).|)
(set-info :smt-lib-version 2.0)
(set-info :category "industrial")
(set-info :status unsat)
;; MathSAT API call trace
;; generated on Mon Mar 19 10:38:03 2012
(declare-fun b.counter.3__AT1 () Bool)
(declare-fun b.EVENT.1__AT0 () Bool)
(declare-fun b.x__AT0 () Real)
(declare-fun b.speed_x__AT1 () Real)
(declare-fun b.time__AT1 () Real)
(declare-fun g__AT0 () Real)
(declare-fun b.y__AT0 () Real)
(declare-fun b.EVENT.0__AT1 () Bool)
(declare-fun b.time__AT2 () Real)
(declare-fun b.speed_y__AT1 () Real)
(declare-fun b.y__AT2 () Real)
(declare-fun b.delta__AT1 () Real)
(declare-fun b.counter.0__AT0 () Bool)
(declare-fun b.EVENT.1__AT1 () Bool)
(declare-fun b.delta__AT2 () Real)
(declare-fun b.counter.0__AT2 () Bool)
(declare-fun b.counter.1__AT0 () Bool)
(declare-fun b.delta__AT0 () Real)
(declare-fun b.x__AT2 () Real)
(declare-fun b.EVENT.0__AT2 () Bool)
(declare-fun b.counter.1__AT2 () Bool)
(declare-fun b.EVENT.0__AT0 () Bool)
(declare-fun b.EVENT.1__AT2 () Bool)
(declare-fun b.counter.2__AT2 () Bool)
(declare-fun b.x__AT1 () Real)
(declare-fun b.counter.3__AT2 () Bool)
(declare-fun b.speed_x__AT2 () Real)
(declare-fun b.speed_y__AT0 () Real)
(declare-fun b.speed_y__AT2 () Real)
(declare-fun b.counter.3__AT0 () Bool)
(declare-fun b.event_is_timed__AT0 () Bool)
(declare-fun speed_loss__AT0 () Real)
(declare-fun b.y__AT1 () Real)
(declare-fun b.event_is_timed__AT1 () Bool)
(declare-fun b.counter.0__AT1 () Bool)
(declare-fun b.speed_x__AT0 () Real)
(declare-fun b.counter.1__AT1 () Bool)
(declare-fun b.time__AT0 () Real)
(declare-fun b.counter.2__AT0 () Bool)
(declare-fun b.event_is_timed__AT2 () Bool)
(declare-fun b.counter.2__AT1 () Bool)
(assert (let ((.def_76 (* (- 1.0) g__AT0)))
(let ((.def_77 (* (/ 1 2) .def_76)))
(let ((.def_84 (* 2.0 .def_77)))
(let ((.def_128 (* (- 1.0) .def_84)))
(let ((.def_583 (* .def_128 b.delta__AT2)))
(let ((.def_586 (<= .def_583 b.speed_y__AT2)))
(let ((.def_593 (not .def_586)))
(let ((.def_546 (<= 0.0 b.speed_y__AT2)))
(let ((.def_594 (or .def_546 .def_593)))
(let ((.def_584 (<= b.speed_y__AT2 .def_583)))
(let ((.def_560 (<= b.speed_y__AT2 0.0 )))
(let ((.def_561 (not .def_560)))
(let ((.def_592 (or .def_561 .def_584)))
(let ((.def_595 (and .def_592 .def_594)))
(let ((.def_119 (<= g__AT0 0.0 )))
(let ((.def_596 (or .def_119 .def_595)))
(let ((.def_588 (not .def_584)))
(let ((.def_589 (or .def_560 .def_588)))
(let ((.def_547 (not .def_546)))
(let ((.def_587 (or .def_547 .def_586)))
(let ((.def_590 (and .def_587 .def_589)))
(let ((.def_124 (<= 0.0 g__AT0)))
(let ((.def_591 (or .def_124 .def_590)))
(let ((.def_597 (and .def_591 .def_596)))
(let ((.def_585 (and .def_560 .def_584)))
(let ((.def_598 (and .def_585 .def_597)))
(let ((.def_542 (* .def_84 b.delta__AT2)))
(let ((.def_543 (+ b.speed_y__AT2 .def_542)))
(let ((.def_558 (<= .def_543 0.0 )))
(let ((.def_559 (not .def_558)))
(let ((.def_578 (or .def_559 .def_560)))
(let ((.def_544 (<= 0.0 .def_543)))
(let ((.def_577 (or .def_544 .def_547)))
(let ((.def_579 (and .def_577 .def_578)))
(let ((.def_580 (or .def_124 .def_579)))
(let ((.def_545 (not .def_544)))
(let ((.def_574 (or .def_545 .def_546)))
(let ((.def_573 (or .def_558 .def_561)))
(let ((.def_575 (and .def_573 .def_574)))
(let ((.def_576 (or .def_119 .def_575)))
(let ((.def_581 (and .def_576 .def_580)))
(let ((.def_572 (and .def_544 .def_546)))
(let ((.def_582 (and .def_572 .def_581)))
(let ((.def_599 (or .def_582 .def_598)))
(let ((.def_537 (* b.speed_y__AT2 b.delta__AT2)))
(let ((.def_535 (* b.delta__AT2 b.delta__AT2)))
(let ((.def_536 (* .def_77 .def_535)))
(let ((.def_538 (+ .def_536 .def_537)))
(let ((.def_539 (+ b.y__AT2 .def_538)))
(let ((.def_552 (<= .def_539 0.0 )))
(let ((.def_566 (not .def_552)))
(let ((.def_550 (<= b.y__AT2 0.0 )))
(let ((.def_567 (or .def_550 .def_566)))
(let ((.def_523 (<= 0.0 b.y__AT2)))
(let ((.def_564 (not .def_523)))
(let ((.def_540 (<= 0.0 .def_539)))
(let ((.def_565 (or .def_540 .def_564)))
(let ((.def_568 (and .def_565 .def_567)))
(let ((.def_562 (or .def_559 .def_561)))
(let ((.def_563 (not .def_562)))
(let ((.def_569 (or .def_563 .def_568)))
(let ((.def_554 (not .def_540)))
(let ((.def_555 (or .def_523 .def_554)))
(let ((.def_551 (not .def_550)))
(let ((.def_553 (or .def_551 .def_552)))
(let ((.def_556 (and .def_553 .def_555)))
(let ((.def_548 (or .def_545 .def_547)))
(let ((.def_549 (not .def_548)))
(let ((.def_557 (or .def_549 .def_556)))
(let ((.def_570 (and .def_557 .def_569)))
(let ((.def_541 (and .def_523 .def_540)))
(let ((.def_571 (and .def_541 .def_570)))
(let ((.def_600 (and .def_571 .def_599)))
(let ((.def_57 (<= g__AT0 10.0 )))
(let ((.def_56 (<= 8.0 g__AT0)))
(let ((.def_58 (and .def_56 .def_57)))
(let ((.def_601 (and .def_58 .def_600)))
(let ((.def_65 (<= speed_loss__AT0 (/ 1 2))))
(let ((.def_62 (<= (/ 1 10) speed_loss__AT0)))
(let ((.def_66 (and .def_62 .def_65)))
(let ((.def_602 (and .def_66 .def_601)))
(let ((.def_203 (not b.counter.0__AT1)))
(let ((.def_191 (not b.counter.1__AT1)))
(let ((.def_527 (and .def_191 .def_203)))
(let ((.def_530 (or b.counter.3__AT1 .def_527)))
(let ((.def_198 (not b.counter.2__AT1)))
(let ((.def_528 (and .def_198 .def_527)))
(let ((.def_213 (not b.counter.3__AT1)))
(let ((.def_529 (or .def_213 .def_528)))
(let ((.def_531 (and .def_529 .def_530)))
(let ((.def_67 (and .def_58 .def_66)))
(let ((.def_524 (and .def_67 .def_523)))
(let ((.def_520 (not b.EVENT.0__AT2)))
(let ((.def_518 (not b.EVENT.1__AT2)))
(let ((.def_521 (or .def_518 .def_520)))
(let ((.def_6 (not b.counter.0__AT2)))
(let ((.def_4 (not b.counter.1__AT2)))
(let ((.def_511 (or .def_4 .def_6)))
(let ((.def_515 (or b.counter.3__AT2 .def_511)))
(let ((.def_512 (or b.counter.2__AT2 .def_511)))
(let ((.def_9 (not b.counter.2__AT2)))
(let ((.def_510 (or .def_6 .def_9)))
(let ((.def_513 (and .def_510 .def_512)))
(let ((.def_12 (not b.counter.3__AT2)))
(let ((.def_514 (or .def_12 .def_513)))
(let ((.def_516 (and .def_514 .def_515)))
(let ((.def_522 (and .def_516 .def_521)))
(let ((.def_525 (and .def_522 .def_524)))
(let ((.def_505 (<= 0.0 b.delta__AT1)))
(let ((.def_301 (not b.EVENT.0__AT1)))
(let ((.def_299 (not b.EVENT.1__AT1)))
(let ((.def_409 (and .def_299 .def_301)))
(let ((.def_410 (not .def_409)))
(let ((.def_506 (or .def_410 .def_505)))
(let ((.def_507 (or b.EVENT.1__AT1 .def_506)))
(let ((.def_454 (= b.counter.0__AT2 b.counter.0__AT1)))
(let ((.def_452 (= b.counter.1__AT2 b.counter.1__AT1)))
(let ((.def_450 (= b.counter.2__AT2 b.counter.2__AT1)))
(let ((.def_449 (= b.counter.3__AT2 b.counter.3__AT1)))
(let ((.def_451 (and .def_449 .def_450)))
(let ((.def_453 (and .def_451 .def_452)))
(let ((.def_455 (and .def_453 .def_454)))
(let ((.def_502 (or .def_410 .def_455)))
(let ((.def_503 (or b.EVENT.1__AT1 .def_502)))
(let ((.def_462 (= b.x__AT1 b.x__AT2)))
(let ((.def_459 (= b.y__AT1 b.y__AT2)))
(let ((.def_496 (and .def_459 .def_462)))
(let ((.def_390 (= b.speed_x__AT1 b.speed_x__AT2)))
(let ((.def_497 (and .def_390 .def_496)))
(let ((.def_448 (= b.speed_y__AT1 b.speed_y__AT2)))
(let ((.def_498 (and .def_448 .def_497)))
(let ((.def_493 (= b.delta__AT1 0.0 )))
(let ((.def_494 (and .def_409 .def_493)))
(let ((.def_495 (not .def_494)))
(let ((.def_499 (or .def_495 .def_498)))
(let ((.def_500 (or b.EVENT.1__AT1 .def_499)))
(let ((.def_473 (= b.time__AT1 b.time__AT2)))
(let ((.def_485 (and .def_462 .def_473)))
(let ((.def_486 (and .def_459 .def_485)))
(let ((.def_487 (and .def_390 .def_486)))
(let ((.def_488 (and .def_448 .def_487)))
(let ((.def_489 (and .def_455 .def_488)))
(let ((.def_490 (or .def_299 .def_489)))
(let ((.def_476 (* (- 1.0) b.time__AT2)))
(let ((.def_479 (+ b.delta__AT1 .def_476)))
(let ((.def_480 (+ b.time__AT1 .def_479)))
(let ((.def_481 (= .def_480 0.0 )))
(let ((.def_482 (or .def_410 .def_481)))
(let ((.def_483 (or b.EVENT.1__AT1 .def_482)))
(let ((.def_474 (or .def_409 .def_473)))
(let ((.def_475 (or b.EVENT.1__AT1 .def_474)))
(let ((.def_484 (and .def_475 .def_483)))
(let ((.def_491 (and .def_484 .def_490)))
(let ((.def_469 (= .def_410 b.event_is_timed__AT2)))
(let ((.def_467 (= b.event_is_timed__AT1 .def_409)))
(let ((.def_470 (and .def_467 .def_469)))
(let ((.def_456 (and .def_448 .def_455)))
(let ((.def_412 (= b.y__AT1 0.0 )))
(let ((.def_325 (<= 0.0 b.speed_y__AT1)))
(let ((.def_326 (not .def_325)))
(let ((.def_413 (and .def_326 .def_412)))
(let ((.def_457 (or .def_413 .def_456)))
(let ((.def_425 (or .def_6 b.counter.0__AT1)))
(let ((.def_424 (or b.counter.0__AT2 .def_203)))
(let ((.def_426 (and .def_424 .def_425)))
(let ((.def_427 (and .def_4 .def_426)))
(let ((.def_428 (or b.counter.1__AT1 .def_427)))
(let ((.def_423 (or b.counter.1__AT2 .def_191)))
(let ((.def_429 (and .def_423 .def_428)))
(let ((.def_440 (and .def_9 .def_429)))
(let ((.def_441 (or b.counter.2__AT1 .def_440)))
(let ((.def_435 (and .def_4 .def_203)))
(let ((.def_436 (or b.counter.1__AT1 .def_435)))
(let ((.def_437 (and .def_423 .def_436)))
(let ((.def_438 (and b.counter.2__AT2 .def_437)))
(let ((.def_439 (or .def_198 .def_438)))
(let ((.def_442 (and .def_439 .def_441)))
(let ((.def_443 (and b.counter.3__AT2 .def_442)))
(let ((.def_444 (or b.counter.3__AT1 .def_443)))
(let ((.def_430 (and b.counter.2__AT2 .def_429)))
(let ((.def_431 (or b.counter.2__AT1 .def_430)))
(let ((.def_419 (or b.counter.1__AT2 b.counter.1__AT1)))
(let ((.def_417 (and .def_4 b.counter.0__AT2)))
(let ((.def_418 (or .def_191 .def_417)))
(let ((.def_420 (and .def_418 .def_419)))
(let ((.def_421 (and .def_9 .def_420)))
(let ((.def_422 (or .def_198 .def_421)))
(let ((.def_432 (and .def_422 .def_431)))
(let ((.def_433 (and .def_12 .def_432)))
(let ((.def_434 (or .def_213 .def_433)))
(let ((.def_445 (and .def_434 .def_444)))
(let ((.def_185 (* (- 1.0) speed_loss__AT0)))
(let ((.def_186 (+ 1.0 .def_185)))
(let ((.def_165 (* (- 1.0) b.speed_y__AT1)))
(let ((.def_415 (* .def_165 .def_186)))
(let ((.def_416 (= b.speed_y__AT2 .def_415)))
(let ((.def_446 (and .def_416 .def_445)))
(let ((.def_414 (not .def_413)))
(let ((.def_447 (or .def_414 .def_446)))
(let ((.def_458 (and .def_447 .def_457)))
(let ((.def_460 (and .def_458 .def_459)))
(let ((.def_461 (and .def_390 .def_460)))
(let ((.def_463 (and .def_461 .def_462)))
(let ((.def_464 (or .def_409 .def_463)))
(let ((.def_465 (or b.EVENT.1__AT1 .def_464)))
(let ((.def_400 (* (- 1.0) b.y__AT2)))
(let ((.def_316 (* b.speed_y__AT1 b.delta__AT1)))
(let ((.def_404 (+ .def_316 .def_400)))
(let ((.def_314 (* b.delta__AT1 b.delta__AT1)))
(let ((.def_315 (* .def_77 .def_314)))
(let ((.def_405 (+ .def_315 .def_404)))
(let ((.def_406 (+ b.y__AT1 .def_405)))
(let ((.def_407 (= .def_406 0.0 )))
(let ((.def_394 (* (- 1.0) b.speed_y__AT2)))
(let ((.def_392 (* .def_76 b.delta__AT1)))
(let ((.def_395 (+ .def_392 .def_394)))
(let ((.def_396 (+ b.speed_y__AT1 .def_395)))
(let ((.def_397 (= .def_396 0.0 )))
(let ((.def_385 (* (- 1.0) b.x__AT2)))
(let ((.def_383 (* b.speed_x__AT1 b.delta__AT1)))
(let ((.def_386 (+ .def_383 .def_385)))
(let ((.def_387 (+ b.x__AT1 .def_386)))
(let ((.def_388 (= .def_387 0.0 )))
(let ((.def_391 (and .def_388 .def_390)))
(let ((.def_398 (and .def_391 .def_397)))
(let ((.def_408 (and .def_398 .def_407)))
(let ((.def_411 (or .def_408 .def_410)))
(let ((.def_466 (and .def_411 .def_465)))
(let ((.def_471 (and .def_466 .def_470)))
(let ((.def_492 (and .def_471 .def_491)))
(let ((.def_501 (and .def_492 .def_500)))
(let ((.def_504 (and .def_501 .def_503)))
(let ((.def_508 (and .def_504 .def_507)))
(let ((.def_509 (and .def_299 .def_508)))
(let ((.def_526 (and .def_509 .def_525)))
(let ((.def_532 (and .def_526 .def_531)))
(let ((.def_362 (* .def_128 b.delta__AT1)))
(let ((.def_365 (<= .def_362 b.speed_y__AT1)))
(let ((.def_372 (not .def_365)))
(let ((.def_373 (or .def_325 .def_372)))
(let ((.def_363 (<= b.speed_y__AT1 .def_362)))
(let ((.def_339 (<= b.speed_y__AT1 0.0 )))
(let ((.def_340 (not .def_339)))
(let ((.def_371 (or .def_340 .def_363)))
(let ((.def_374 (and .def_371 .def_373)))
(let ((.def_375 (or .def_119 .def_374)))
(let ((.def_367 (not .def_363)))
(let ((.def_368 (or .def_339 .def_367)))
(let ((.def_366 (or .def_326 .def_365)))
(let ((.def_369 (and .def_366 .def_368)))
(let ((.def_370 (or .def_124 .def_369)))
(let ((.def_376 (and .def_370 .def_375)))
(let ((.def_364 (and .def_339 .def_363)))
(let ((.def_377 (and .def_364 .def_376)))
(let ((.def_321 (* .def_84 b.delta__AT1)))
(let ((.def_322 (+ b.speed_y__AT1 .def_321)))
(let ((.def_337 (<= .def_322 0.0 )))
(let ((.def_338 (not .def_337)))
(let ((.def_357 (or .def_338 .def_339)))
(let ((.def_323 (<= 0.0 .def_322)))
(let ((.def_356 (or .def_323 .def_326)))
(let ((.def_358 (and .def_356 .def_357)))
(let ((.def_359 (or .def_124 .def_358)))
(let ((.def_324 (not .def_323)))
(let ((.def_353 (or .def_324 .def_325)))
(let ((.def_352 (or .def_337 .def_340)))
(let ((.def_354 (and .def_352 .def_353)))
(let ((.def_355 (or .def_119 .def_354)))
(let ((.def_360 (and .def_355 .def_359)))
(let ((.def_351 (and .def_323 .def_325)))
(let ((.def_361 (and .def_351 .def_360)))
(let ((.def_378 (or .def_361 .def_377)))
(let ((.def_317 (+ .def_315 .def_316)))
(let ((.def_318 (+ b.y__AT1 .def_317)))
(let ((.def_331 (<= .def_318 0.0 )))
(let ((.def_345 (not .def_331)))
(let ((.def_329 (<= b.y__AT1 0.0 )))
(let ((.def_346 (or .def_329 .def_345)))
(let ((.def_304 (<= 0.0 b.y__AT1)))
(let ((.def_343 (not .def_304)))
(let ((.def_319 (<= 0.0 .def_318)))
(let ((.def_344 (or .def_319 .def_343)))
(let ((.def_347 (and .def_344 .def_346)))
(let ((.def_341 (or .def_338 .def_340)))
(let ((.def_342 (not .def_341)))
(let ((.def_348 (or .def_342 .def_347)))
(let ((.def_333 (not .def_319)))
(let ((.def_334 (or .def_304 .def_333)))
(let ((.def_330 (not .def_329)))
(let ((.def_332 (or .def_330 .def_331)))
(let ((.def_335 (and .def_332 .def_334)))
(let ((.def_327 (or .def_324 .def_326)))
(let ((.def_328 (not .def_327)))
(let ((.def_336 (or .def_328 .def_335)))
(let ((.def_349 (and .def_336 .def_348)))
(let ((.def_320 (and .def_304 .def_319)))
(let ((.def_350 (and .def_320 .def_349)))
(let ((.def_379 (and .def_350 .def_378)))
(let ((.def_380 (and .def_58 .def_379)))
(let ((.def_381 (and .def_66 .def_380)))
(let ((.def_32 (not b.counter.0__AT0)))
(let ((.def_30 (not b.counter.1__AT0)))
(let ((.def_33 (and .def_30 .def_32)))
(let ((.def_309 (or .def_33 b.counter.3__AT0)))
(let ((.def_38 (not b.counter.3__AT0)))
(let ((.def_35 (not b.counter.2__AT0)))
(let ((.def_36 (and .def_33 .def_35)))
(let ((.def_308 (or .def_36 .def_38)))
(let ((.def_310 (and .def_308 .def_309)))
(let ((.def_305 (and .def_67 .def_304)))
(let ((.def_302 (or .def_299 .def_301)))
(let ((.def_292 (or .def_191 .def_203)))
(let ((.def_296 (or b.counter.3__AT1 .def_292)))
(let ((.def_293 (or b.counter.2__AT1 .def_292)))
(let ((.def_291 (or .def_198 .def_203)))
(let ((.def_294 (and .def_291 .def_293)))
(let ((.def_295 (or .def_213 .def_294)))
(let ((.def_297 (and .def_295 .def_296)))
(let ((.def_303 (and .def_297 .def_302)))
(let ((.def_306 (and .def_303 .def_305)))
(let ((.def_286 (<= 0.0 b.delta__AT0)))
(let ((.def_51 (not b.EVENT.0__AT0)))
(let ((.def_49 (not b.EVENT.1__AT0)))
(let ((.def_179 (and .def_49 .def_51)))
(let ((.def_180 (not .def_179)))
(let ((.def_287 (or .def_180 .def_286)))
(let ((.def_288 (or b.EVENT.1__AT0 .def_287)))
(let ((.def_235 (= b.counter.0__AT0 b.counter.0__AT1)))
(let ((.def_233 (= b.counter.1__AT0 b.counter.1__AT1)))
(let ((.def_231 (= b.counter.2__AT0 b.counter.2__AT1)))
(let ((.def_230 (= b.counter.3__AT0 b.counter.3__AT1)))
(let ((.def_232 (and .def_230 .def_231)))
(let ((.def_234 (and .def_232 .def_233)))
(let ((.def_236 (and .def_234 .def_235)))
(let ((.def_283 (or .def_180 .def_236)))
(let ((.def_284 (or b.EVENT.1__AT0 .def_283)))
(let ((.def_243 (= b.x__AT1 b.x__AT0)))
(let ((.def_240 (= b.y__AT0 b.y__AT1)))
(let ((.def_277 (and .def_240 .def_243)))
(let ((.def_161 (= b.speed_x__AT0 b.speed_x__AT1)))
(let ((.def_278 (and .def_161 .def_277)))
(let ((.def_229 (= b.speed_y__AT0 b.speed_y__AT1)))
(let ((.def_279 (and .def_229 .def_278)))
(let ((.def_274 (= b.delta__AT0 0.0 )))
(let ((.def_275 (and .def_179 .def_274)))
(let ((.def_276 (not .def_275)))
(let ((.def_280 (or .def_276 .def_279)))
(let ((.def_281 (or b.EVENT.1__AT0 .def_280)))
(let ((.def_254 (= b.time__AT0 b.time__AT1)))
(let ((.def_266 (and .def_243 .def_254)))
(let ((.def_267 (and .def_240 .def_266)))
(let ((.def_268 (and .def_161 .def_267)))
(let ((.def_269 (and .def_229 .def_268)))
(let ((.def_270 (and .def_236 .def_269)))
(let ((.def_271 (or .def_49 .def_270)))
(let ((.def_257 (* (- 1.0) b.time__AT1)))
(let ((.def_260 (+ b.delta__AT0 .def_257)))
(let ((.def_261 (+ b.time__AT0 .def_260)))
(let ((.def_262 (= .def_261 0.0 )))
(let ((.def_263 (or .def_180 .def_262)))
(let ((.def_264 (or b.EVENT.1__AT0 .def_263)))
(let ((.def_255 (or .def_179 .def_254)))
(let ((.def_256 (or b.EVENT.1__AT0 .def_255)))
(let ((.def_265 (and .def_256 .def_264)))
(let ((.def_272 (and .def_265 .def_271)))
(let ((.def_250 (= .def_180 b.event_is_timed__AT1)))
(let ((.def_248 (= b.event_is_timed__AT0 .def_179)))
(let ((.def_251 (and .def_248 .def_250)))
(let ((.def_237 (and .def_229 .def_236)))
(let ((.def_182 (= b.y__AT0 0.0 )))
(let ((.def_89 (<= 0.0 b.speed_y__AT0)))
(let ((.def_90 (not .def_89)))
(let ((.def_183 (and .def_90 .def_182)))
(let ((.def_238 (or .def_183 .def_237)))
(let ((.def_204 (or b.counter.0__AT0 .def_203)))
(let ((.def_202 (or .def_32 b.counter.0__AT1)))
(let ((.def_205 (and .def_202 .def_204)))
(let ((.def_206 (and .def_191 .def_205)))
(let ((.def_207 (or b.counter.1__AT0 .def_206)))
(let ((.def_201 (or .def_30 b.counter.1__AT1)))
(let ((.def_208 (and .def_201 .def_207)))
(let ((.def_221 (and .def_198 .def_208)))
(let ((.def_222 (or b.counter.2__AT0 .def_221)))
(let ((.def_216 (and .def_32 .def_191)))
(let ((.def_217 (or b.counter.1__AT0 .def_216)))
(let ((.def_218 (and .def_201 .def_217)))
(let ((.def_219 (and b.counter.2__AT1 .def_218)))
(let ((.def_220 (or .def_35 .def_219)))
(let ((.def_223 (and .def_220 .def_222)))
(let ((.def_224 (and b.counter.3__AT1 .def_223)))
(let ((.def_225 (or b.counter.3__AT0 .def_224)))
(let ((.def_209 (and b.counter.2__AT1 .def_208)))
(let ((.def_210 (or b.counter.2__AT0 .def_209)))
(let ((.def_195 (or b.counter.1__AT0 b.counter.1__AT1)))
(let ((.def_193 (and .def_191 b.counter.0__AT1)))
(let ((.def_194 (or .def_30 .def_193)))
(let ((.def_196 (and .def_194 .def_195)))
(let ((.def_199 (and .def_196 .def_198)))
(let ((.def_200 (or .def_35 .def_199)))
(let ((.def_211 (and .def_200 .def_210)))
(let ((.def_214 (and .def_211 .def_213)))
(let ((.def_215 (or .def_38 .def_214)))
(let ((.def_226 (and .def_215 .def_225)))
(let ((.def_187 (* (- 1.0) b.speed_y__AT0)))
(let ((.def_188 (* .def_186 .def_187)))
(let ((.def_189 (= b.speed_y__AT1 .def_188)))
(let ((.def_227 (and .def_189 .def_226)))
(let ((.def_184 (not .def_183)))
(let ((.def_228 (or .def_184 .def_227)))
(let ((.def_239 (and .def_228 .def_238)))
(let ((.def_241 (and .def_239 .def_240)))
(let ((.def_242 (and .def_161 .def_241)))
(let ((.def_244 (and .def_242 .def_243)))
(let ((.def_245 (or .def_179 .def_244)))
(let ((.def_246 (or b.EVENT.1__AT0 .def_245)))
(let ((.def_171 (* (- 1.0) b.y__AT1)))
(let ((.def_79 (* b.speed_y__AT0 b.delta__AT0)))
(let ((.def_174 (+ .def_79 .def_171)))
(let ((.def_74 (* b.delta__AT0 b.delta__AT0)))
(let ((.def_78 (* .def_74 .def_77)))
(let ((.def_175 (+ .def_78 .def_174)))
(let ((.def_176 (+ b.y__AT0 .def_175)))
(let ((.def_177 (= .def_176 0.0 )))
(let ((.def_163 (* b.delta__AT0 .def_76)))
(let ((.def_166 (+ .def_163 .def_165)))
(let ((.def_167 (+ b.speed_y__AT0 .def_166)))
(let ((.def_168 (= .def_167 0.0 )))
(let ((.def_153 (* (- 1.0) b.x__AT1)))
(let ((.def_157 (+ .def_153 b.x__AT0)))
(let ((.def_151 (* b.delta__AT0 b.speed_x__AT0)))
(let ((.def_158 (+ .def_151 .def_157)))
(let ((.def_159 (= .def_158 0.0 )))
(let ((.def_162 (and .def_159 .def_161)))
(let ((.def_169 (and .def_162 .def_168)))
(let ((.def_178 (and .def_169 .def_177)))
(let ((.def_181 (or .def_178 .def_180)))
(let ((.def_247 (and .def_181 .def_246)))
(let ((.def_252 (and .def_247 .def_251)))
(let ((.def_273 (and .def_252 .def_272)))
(let ((.def_282 (and .def_273 .def_281)))
(let ((.def_285 (and .def_282 .def_284)))
(let ((.def_289 (and .def_285 .def_288)))
(let ((.def_290 (and .def_49 .def_289)))
(let ((.def_307 (and .def_290 .def_306)))
(let ((.def_311 (and .def_307 .def_310)))
(let ((.def_129 (* b.delta__AT0 .def_128)))
(let ((.def_132 (<= .def_129 b.speed_y__AT0)))
(let ((.def_139 (not .def_132)))
(let ((.def_140 (or .def_89 .def_139)))
(let ((.def_130 (<= b.speed_y__AT0 .def_129)))
(let ((.def_103 (<= b.speed_y__AT0 0.0 )))
(let ((.def_104 (not .def_103)))
(let ((.def_138 (or .def_104 .def_130)))
(let ((.def_141 (and .def_138 .def_140)))
(let ((.def_142 (or .def_119 .def_141)))
(let ((.def_134 (not .def_130)))
(let ((.def_135 (or .def_103 .def_134)))
(let ((.def_133 (or .def_90 .def_132)))
(let ((.def_136 (and .def_133 .def_135)))
(let ((.def_137 (or .def_124 .def_136)))
(let ((.def_143 (and .def_137 .def_142)))
(let ((.def_131 (and .def_103 .def_130)))
(let ((.def_144 (and .def_131 .def_143)))
(let ((.def_85 (* b.delta__AT0 .def_84)))
(let ((.def_86 (+ b.speed_y__AT0 .def_85)))
(let ((.def_101 (<= .def_86 0.0 )))
(let ((.def_102 (not .def_101)))
(let ((.def_122 (or .def_102 .def_103)))
(let ((.def_87 (<= 0.0 .def_86)))
(let ((.def_121 (or .def_87 .def_90)))
(let ((.def_123 (and .def_121 .def_122)))
(let ((.def_125 (or .def_123 .def_124)))
(let ((.def_88 (not .def_87)))
(let ((.def_117 (or .def_88 .def_89)))
(let ((.def_116 (or .def_101 .def_104)))
(let ((.def_118 (and .def_116 .def_117)))
(let ((.def_120 (or .def_118 .def_119)))
(let ((.def_126 (and .def_120 .def_125)))
(let ((.def_115 (and .def_87 .def_89)))
(let ((.def_127 (and .def_115 .def_126)))
(let ((.def_145 (or .def_127 .def_144)))
(let ((.def_80 (+ .def_78 .def_79)))
(let ((.def_81 (+ b.y__AT0 .def_80)))
(let ((.def_95 (<= .def_81 0.0 )))
(let ((.def_109 (not .def_95)))
(let ((.def_93 (<= b.y__AT0 0.0 )))
(let ((.def_110 (or .def_93 .def_109)))
(let ((.def_68 (<= 0.0 b.y__AT0)))
(let ((.def_107 (not .def_68)))
(let ((.def_82 (<= 0.0 .def_81)))
(let ((.def_108 (or .def_82 .def_107)))
(let ((.def_111 (and .def_108 .def_110)))
(let ((.def_105 (or .def_102 .def_104)))
(let ((.def_106 (not .def_105)))
(let ((.def_112 (or .def_106 .def_111)))
(let ((.def_97 (not .def_82)))
(let ((.def_98 (or .def_68 .def_97)))
(let ((.def_94 (not .def_93)))
(let ((.def_96 (or .def_94 .def_95)))
(let ((.def_99 (and .def_96 .def_98)))
(let ((.def_91 (or .def_88 .def_90)))
(let ((.def_92 (not .def_91)))
(let ((.def_100 (or .def_92 .def_99)))
(let ((.def_113 (and .def_100 .def_112)))
(let ((.def_83 (and .def_68 .def_82)))
(let ((.def_114 (and .def_83 .def_113)))
(let ((.def_146 (and .def_114 .def_145)))
(let ((.def_147 (and .def_58 .def_146)))
(let ((.def_148 (and .def_66 .def_147)))
(let ((.def_69 (and .def_67 .def_68)))
(let ((.def_52 (or .def_49 .def_51)))
(let ((.def_42 (or .def_30 .def_32)))
(let ((.def_46 (or b.counter.3__AT0 .def_42)))
(let ((.def_43 (or b.counter.2__AT0 .def_42)))
(let ((.def_41 (or .def_32 .def_35)))
(let ((.def_44 (and .def_41 .def_43)))
(let ((.def_45 (or .def_38 .def_44)))
(let ((.def_47 (and .def_45 .def_46)))
(let ((.def_53 (and .def_47 .def_52)))
(let ((.def_70 (and .def_53 .def_69)))
(let ((.def_39 (and .def_36 .def_38)))
(let ((.def_27 (= b.speed_y__AT0 0.0 )))
(let ((.def_24 (= b.y__AT0 10.0 )))
(let ((.def_19 (= b.time__AT0 0.0 )))
(let ((.def_21 (and .def_19 b.event_is_timed__AT0)))
(let ((.def_25 (and .def_21 .def_24)))
(let ((.def_28 (and .def_25 .def_27)))
(let ((.def_40 (and .def_28 .def_39)))
(let ((.def_71 (and .def_40 .def_70)))
(let ((.def_7 (and .def_4 .def_6)))
(let ((.def_14 (or .def_7 b.counter.3__AT2)))
(let ((.def_10 (and .def_7 .def_9)))
(let ((.def_13 (or .def_10 .def_12)))
(let ((.def_15 (and .def_13 .def_14)))
(let ((.def_16 (not .def_15)))
(let ((.def_72 (and .def_16 .def_71)))
(let ((.def_149 (and .def_72 .def_148)))
(let ((.def_312 (and .def_149 .def_311)))
(let ((.def_382 (and .def_312 .def_381)))
(let ((.def_533 (and .def_382 .def_532)))
(let ((.def_603 (and .def_533 .def_602)))
.def_603))))))))))))))))))))))))))))))))))))))))))))))))))))))))))))))))))))))))))))))))))))))))))))))))))))))))))))))))))))))))))))))))))))))))))))))))))))))))))))))))))))))))))))))))))))))))))))))))))))))))))))))))))))))))))))))))))))))))))))))))))))))))))))))))))))))))))))))))))))))))))))))))))))))))))))))))))))))))))))))))))))))))))))))))))))))))))))))))))))))))))))))))))))))))))))))))))))))))))))))))))))))))))))))))))))))))))))))))))))))))))))))))))))))))))))))))))))))))))))))))))))))))))))))))))))))))))))))))))))))))))))))))))))))))))))))
(check-sat)
(exit)
